num_features = 53;
num_usage_limits = 2;
num_plans = 4;
num_addons = 0;

features = ["versionHistory","figmaEditor","advancedDrawingTools","autoLayout","styles","pluginsAndWidgets","fileStorage","crossPlatform","sketchImport","interactivePrototypes","videosInPrototypes","overlays","transitions","advancedAnimations","pdfPngJpgSvgExport","multiplayer","shareableLinks","onCanvasCommenting","observationMode","privateProjects","prototypeSharingPermissions","audioConversations","teams","branchingAndMerging","customWorkspaces","components","teamLibraries","organizationWideDesignSystems","sharedFonts","designSystemAnalytics","restApis","thirdPartyIntegrations","liveEmbeds","privatePluginsAndWidgets","webhooks","passwordProtection","pluginAndWidgetManagement","centralizedAdministration","domainCapture","linkAccessControls","centralizedContentManagent","singleSignOn","activityLogs","workspaceAdministration","guestAccessControls","defaultRoles","defaultTeams","roleAssigmentViaSCIM","passwordProtectionRequired","figmaSupportForum","figmaHelpCenter","onboardingPlanningAndSupport","dedicatedAccountManager"];
usage_limits = ["versionHistoryDepth","unlimitedTeamsPermitted"];
plans = ["STARTER","PROFESSIONAL","ORGANIZATION","ENTERPRISE"];
addons = [];

plans_prices = [0,15,45,75];
addons_prices = [];

linked_features = array2d(USAGE_LIMITS, FEATURES, [
    % versionHistoryDepth
    1,0,0,0,0,0,0,0,0,0,0,0,0,0,0,0,0,0,0,0,0,0,0,0,0,0,0,0,0,0,0,0,0,0,0,0,0,0,0,0,0,0,0,0,0,0,0,0,0,0,0,0,0,
    % unlimitedTeamsPermitted
    0,0,0,0,0,0,0,0,0,0,0,0,0,0,0,0,0,0,0,0,0,0,1,0,0,0,0,0,0,0,0,0,0,0,0,0,0,0,0,0,0,0,0,0,0,0,0,0,0,0,0,0,0
]);

plans_features = array2d(PLANS, FEATURES, [
    % STARTER
    1,1,1,1,1,1,1,1,1,1,1,1,1,1,1,1,1,1,1,0,0,0,1,0,0,1,0,0,0,0,1,1,1,0,0,0,0,0,0,0,0,1,0,0,0,0,0,0,0,1,1,0,0,
    % PROFESSIONAL
    1,1,1,1,1,1,1,1,1,1,1,1,1,1,1,1,1,1,1,1,1,1,1,0,0,1,1,0,0,0,1,1,1,0,0,1,0,0,0,0,0,1,0,0,0,0,0,0,0,1,1,0,0,
    % ORGANIZATION
    1,1,1,1,1,1,1,1,1,1,1,1,1,1,1,1,1,1,1,1,1,1,1,1,0,1,1,1,1,1,1,1,1,1,1,1,1,1,1,1,1,1,1,0,0,0,0,0,0,1,1,0,0,
    % ENTERPRISE
    1,1,1,1,1,1,1,1,1,1,1,1,1,1,1,1,1,1,1,1,1,1,1,1,0,1,1,1,1,1,1,1,1,1,1,1,1,1,1,1,1,1,1,1,1,1,1,1,1,1,1,1,1
]);
plans_usage_limits = array2d(PLANS, USAGE_LIMITS, [
    % STARTER
    30,0,
    % PROFESSIONAL
    1000000000,0,
    % ORGANIZATION
    1000000000,1,
    % ENTERPRISE
    1000000000,1
]);

addons_features = array2d(ADDONS, FEATURES, [
]);
addons_usage_limits = array2d(ADDONS, USAGE_LIMITS, [
]);
addons_usage_limits_extensions = array2d(ADDONS, USAGE_LIMITS, [
]);
addons_available_for = array2d(ADDONS, PLANS, [
]);
addons_depends_on = array2d(ADDONS, ADDONS, [
]);
